NAME: S076D3_20
COMMENT: 1571.66
VEHICLE: 23
TIME: 320.3424
DIMENSION: 76
CAPACITY: 160
DELIVERY_SECTION
0 0 0
1 1 16
2 1 8
3 1 1.6
4 1 1.4
5 2 32
6 2 1.6
7 2 1.6
8 2 1.6
9 2 0.2
10 3 16
11 3 8
12 4 32
13 4 32
14 4 8
15 4 1.6
16 4 1.6
17 4 0.8
18 5 16
19 5 1
20 6 32
21 6 16
22 6 8
23 6 1.6
24 6 1.6
25 6 1.6
26 6 1.2
27 7 16
28 7 1.6
29 7 1.6
30 7 1.6
31 7 1.2
32 8 32
33 8 32
34 9 16
35 9 1.6
36 9 1.6
37 9 1.6
38 9 0.2
39 10 32
40 10 32
41 10 8
42 10 1.6
43 10 1.6
44 10 1.6
45 10 0.2
46 11 16
47 11 1.6
48 11 1.6
49 11 1.6
50 11 0.2
51 12 32
52 12 8
53 12 1.6
54 12 1.6
55 12 1.6
56 12 1.2
57 13 16
58 13 8
59 13 1.6
60 13 1.4
61 14 32
62 14 32
63 14 8
64 14 1.6
65 14 1.6
66 14 1.6
67 14 1.6
68 14 0.6
69 15 16
70 15 1.6
71 15 1.6
72 15 0.8
73 16 16
74 16 1.6
75 16 1.6
76 16 1.6
77 16 0.2
78 17 16
79 17 8
80 17 1.6
81 17 1.6
82 17 1.6
83 17 1.2
84 18 32
85 18 32
86 18 1.6
87 18 1.4
88 19 16
89 19 1.6
90 19 1.6
91 19 0.8
92 20 32
93 20 1.6
94 20 1.6
95 20 1.6
96 20 0.2
97 21 32
98 22 32
99 22 8
100 22 1.6
101 22 1.6
102 22 1.6
103 22 1.2
104 23 16
105 23 1.6
106 23 1.6
107 23 0.8
108 24 32
109 24 16
110 24 8
111 24 1.6
112 24 1.6
113 24 1.6
114 24 0.2
115 25 16
116 25 8
117 25 1.6
118 25 1.6
119 25 1.6
120 25 1.6
121 25 0.6
122 26 16
123 26 1.6
124 26 1.4
125 27 16
126 27 1.6
127 27 1.6
128 27 0.8
129 28 32
130 28 32
131 28 8
132 28 1.6
133 28 1.6
134 28 0.8
135 29 16
136 29 8
137 29 1.6
138 29 1.6
139 29 0.8
140 30 32
141 30 1.6
142 30 1.6
143 30 1.6
144 30 1.2
145 31 16
146 31 1.6
147 31 1.6
148 31 0.8
149 32 32
150 32 32
151 32 8
152 32 1.6
153 32 1.6
154 32 1.6
155 32 1.6
156 32 0.6
157 33 16
158 33 8
159 34 32
160 34 16
161 34 8
162 34 1.6
163 34 1.4
164 35 16
165 35 1.6
166 35 1.6
167 35 1.6
168 35 1.2
169 36 32
170 36 32
171 36 1.6
172 36 1.6
173 36 0.8
174 37 16
175 37 1
176 38 32
177 38 32
178 38 8
179 39 16
180 39 1.6
181 39 1.6
182 39 1.6
183 39 1.6
184 39 0.6
185 40 32
186 40 8
187 40 1.6
188 40 1.6
189 40 1.6
190 40 1.6
191 40 0.6
192 41 16
193 41 1.6
194 41 1.6
195 41 1.6
196 41 1.6
197 41 0.6
198 42 32
199 42 32
200 42 8
201 42 1.6
202 42 1.6
203 42 1.6
204 42 1.6
205 42 0.6
206 43 16
207 43 8
208 43 1.6
209 43 0.4
210 44 16
211 44 1.6
212 44 1.4
213 45 32
214 45 1.6
215 45 0.4
216 46 32
217 46 32
218 46 8
219 46 1.6
220 46 1.6
221 46 1.6
222 46 1.6
223 46 0.6
224 47 16
225 47 8
226 47 1.6
227 47 1.6
228 47 1.6
229 47 0.2
230 48 32
231 48 1.6
232 48 1.6
233 48 1.6
234 48 1.6
235 48 0.6
236 49 32
237 49 8
238 49 1.6
239 49 1.6
240 49 1.6
241 49 1.2
242 50 32
243 50 32
244 50 8
245 50 1.6
246 50 0.4
247 51 32
248 51 1
249 52 32
250 52 16
251 52 8
252 52 1.6
253 52 1.6
254 52 1.6
255 52 0.2
256 53 32
257 53 16
258 53 8
259 53 1.6
260 53 1.4
261 54 32
262 54 32
263 54 1.6
264 54 1.4
265 55 32
266 55 1.6
267 55 1.6
268 55 1.6
269 55 1.2
270 56 32
271 56 32
272 56 8
273 56 1.6
274 56 1.4
275 57 32
276 57 32
277 57 1.6
278 57 1.6
279 57 1.6
280 57 1.2
281 58 32
282 58 16
283 58 8
284 58 1.6
285 58 1.4
286 59 32
287 59 8
288 59 1.6
289 59 1.6
290 59 1.6
291 59 0.2
292 60 32
293 60 32
294 60 8
295 60 1.6
296 60 1.6
297 60 1.6
298 60 1.6
299 60 0.6
300 61 32
301 61 32
302 61 8
303 61 1.6
304 61 1.6
305 61 1.6
306 61 1.2
307 62 32
308 62 16
309 62 1.6
310 62 1.4
311 63 32
312 63 16
313 63 1.6
314 63 1.6
315 63 0.8
316 64 32
317 64 32
318 64 8
319 64 1.6
320 64 1.6
321 64 1.6
322 64 0.2
323 65 32
324 65 32
325 65 8
326 65 1.6
327 65 1.6
328 65 1.6
329 65 1.6
330 65 0.6
331 66 32
332 66 8
333 66 1.6
334 66 1.6
335 66 0.8
336 67 32
337 67 16
338 67 8
339 67 1.6
340 67 1.6
341 67 1.6
342 67 0.2
343 68 32
344 68 32
345 68 1.6
346 68 1.6
347 68 0.8
348 69 32
349 69 32
350 69 8
351 69 1
352 70 32
353 70 1.6
354 70 1.6
355 70 1.6
356 70 0.2
357 71 32
358 71 32
359 71 1.6
360 71 1.6
361 71 1.6
362 71 0.2
363 72 32
364 72 16
365 72 8
366 72 1
367 73 32
368 73 16
369 73 8
370 73 1.6
371 73 0.4
372 74 32
373 75 32
374 75 32
375 75 8
376 75 1.6
377 75 1.4
PICKUP_SECTION
NODE_SECTION
40 40

22 22

36 26

21 45

45 35

55 20

33 34

50 50

55 45

26 59

40 66

55 65

35 51

62 35

62 57

62 24

21 36

33 44

 9 56

62 48

66 14

44 13

26 13

11 28

 7 43

17 64

41 46

55 34

35 16

52 26

43 26

31 76

22 53

26 29

50 40

55 50

54 10

60 15

47 66

30 60

30 50

12 17

15 14

16 19

21 48

50 30

51 42

50 15

48 21

12 38

15 56

29 39

54 38

55 57

67 41

10 70

 6 25

65 27

40 60

70 64

64  4

36  6

30 20

20 30

15  5

50 70

57 72

45 42

38 33

50  4

66  8

59  5

35 60

27 24

40 20

40 37
DISTANCE_SECTION
DEPOT_SECTION
0
EOF